p cnf 31 82
a 17 2 0
e 1 3 4 5 6 7 8 9 10 11 12 13 14 15 16 18 19 20 21 22 23 24 25 26 27 28 29 30 31 0
-3 -1 0
-3 2 0
1 -2 3 0
-4 -5 0
4 -5 0
7 -5 0
7 -6 0
5 6 -7 0
9 8 0
9 -2 0
-8 2 -9 0
12 10 0
12 11 0
-10 -11 -12 0
13 -1 0
13 -12 0
1 12 -13 0
14 9 0
14 -13 0
-9 13 -14 0
-15 -11 0
-15 12 0
11 -12 15 0
16 -5 0
16 10 0
5 -10 -16 0
-18 11 0
-18 -17 0
-11 17 18 0
19 -16 0
19 -18 0
16 18 -19 0
-19 -16 -20 0
19 16 -20 0
-19 16 20 0
19 -16 20 0
-4 10 -21 0
4 -10 -21 0
-4 -10 21 0
4 10 21 0
-22 -11 0
-22 -21 0
11 21 22 0
-1 4 -23 0
1 -4 -23 0
-1 -4 23 0
1 4 23 0
22 -23 -24 0
-22 23 -24 0
22 23 24 0
-22 -23 24 0
-25 -20 0
-25 24 0
20 -24 25 0
-26 -15 0
-26 25 0
15 -25 26 0
27 12 0
27 1 0
-12 -1 -27 0
26 -27 -28 0
-26 27 -28 0
26 27 28 0
-26 -27 28 0
14 -28 -29 0
-14 28 -29 0
14 28 29 0
-14 -28 29 0
-30 7 0
-30 29 0
-7 -29 30 0
31 3 0
31 -30 0
-3 30 -31 0
26 -16 -5 30 2 3 0
-12 13 26 16 23 -2 -18 0
11 1 0
22 30 1 25 8 -18 0
10 -20 6 29 -23 28 5 0
-20 12 3 31 -2 0
30 10 28 -20 6 -29 0
31 0
